
Gurobi 9.0.1 (linux64) logging started Thu Apr 30 20:16:11 2020

Gurobi Optimizer version 9.0.1 build v9.0.1rc0 (linux64)
Optimize a model with 32222 rows, 27380 columns and 603960 nonzeros
Model fingerprint: 0x93fb0a98
Variable types: 0 continuous, 27380 integer (27342 binary)
Coefficient statistics:
  Matrix range     [1e+00, 2e+01]
  Objective range  [1e+00, 1e+02]
  Bounds range     [1e+00, 1e+00]
  RHS range        [1e+00, 1e+00]

User MIP start produced solution with objective 1140 (0.96s)
Loaded user MIP start with objective 1140

Presolve removed 14186 rows and 9391 columns (presolve time = 5s) ...
Presolve removed 14228 rows and 9451 columns (presolve time = 11s) ...
Presolve removed 14228 rows and 9451 columns
Presolve time: 10.73s
Presolved: 17994 rows, 17929 columns, 500980 nonzeros
Variable types: 0 continuous, 17929 integer (17893 binary)

Root simplex log...

Iteration    Objective       Primal Inf.    Dual Inf.      Time
       0    0.0000000e+00   1.940000e+02   0.000000e+00     13s
    1669    5.8550006e+02   5.193831e+03   0.000000e+00     15s
    3329    5.9525008e+02   6.923855e+03   0.000000e+00     20s
    4823    5.9857779e+02   3.184500e+04   0.000000e+00     25s
    6234    6.0137769e+02   6.532746e+04   0.000000e+00     30s
    7645    6.0905782e+02   2.530053e+04   0.000000e+00     35s
    8807    6.1095169e+02   3.486426e+03   0.000000e+00     40s
    9803    6.1436356e+02   5.951893e+03   0.000000e+00     45s
   10882    6.1564177e+02   1.822305e+03   0.000000e+00     50s
   11878    6.1701308e+02   5.518622e+04   0.000000e+00     55s
   12791    6.1801912e+02   3.659139e+03   0.000000e+00     60s
   13704    6.1871233e+02   1.953824e+03   0.000000e+00     65s
   14700    6.2077090e+02   4.611582e+04   0.000000e+00     70s
   15613    6.2217414e+02   3.904259e+04   0.000000e+00     75s
   16610    6.2319902e+02   2.626548e+03   0.000000e+00     80s
   17523    6.2401532e+02   3.965415e+03   0.000000e+00     85s
   18436    6.2464160e+02   2.325710e+03   0.000000e+00     90s
   19266    6.2551899e+02   2.027249e+04   0.000000e+00     95s
   20016    6.2593021e+02   4.556036e+03   0.000000e+00    100s
   20846    6.2638732e+02   3.421152e+04   0.000000e+00    105s
   21676    6.2679890e+02   5.151159e+02   0.000000e+00    110s
   22423    6.2719297e+02   5.971547e+02   0.000000e+00    115s
   23253    6.2774104e+02   4.193170e+02   0.000000e+00    120s
   24000    6.2810783e+02   1.157876e+03   0.000000e+00    125s
   24830    6.2863595e+02   1.222201e+03   0.000000e+00    130s
   25577    6.2882736e+02   5.636530e+01   0.000000e+00    135s
   26324    6.2914938e+02   1.697627e+03   0.000000e+00    140s
   26988    6.2927335e+02   6.809712e-01   0.000000e+00    145s
   27154    6.2927853e+02   0.000000e+00   0.000000e+00    146s

Root relaxation: objective 6.292785e+02, 27154 iterations, 134.39 seconds

    Nodes    |    Current Node    |     Objective Bounds      |     Work
 Expl Unexpl |  Obj  Depth IntInf | Incumbent    BestBd   Gap | It/Node Time

     0     0  629.27853    0 2159 1140.00000  629.27853  44.8%     -  154s
     0     0  677.76073    0 2182 1140.00000  677.76073  40.5%     -  306s
     0     0  678.37556    0 2156 1140.00000  678.37556  40.5%     -  339s
     0     0  678.50463    0 2149 1140.00000  678.50463  40.5%     -  351s
     0     0  678.51082    0 2142 1140.00000  678.51082  40.5%     -  356s
     0     0  694.79136    0 2167 1140.00000  694.79136  39.1%     -  461s
     0     0  694.89968    0 2139 1140.00000  694.89968  39.0%     -  481s
     0     0  694.91237    0 2144 1140.00000  694.91237  39.0%     -  485s
     0     0  694.91261    0 2146 1140.00000  694.91261  39.0%     -  487s
     0     0  704.45817    0 2206 1140.00000  704.45817  38.2%     -  624s
     0     0  705.60162    0 2206 1140.00000  705.60162  38.1%     -  681s
     0     0  705.68055    0 2227 1140.00000  705.68055  38.1%     -  696s
     0     0  705.70187    0 2190 1140.00000  705.70187  38.1%     -  703s
     0     0  705.70457    0 2212 1140.00000  705.70457  38.1%     -  707s
     0     0  709.13188    0 2278 1140.00000  709.13188  37.8%     -  825s
     0     0  709.33582    0 2242 1140.00000  709.33582  37.8%     -  863s
     0     0  709.35932    0 2249 1140.00000  709.35932  37.8%     -  871s
     0     0  709.36236    0 2252 1140.00000  709.36236  37.8%     -  874s
     0     0  710.37142    0 2296 1140.00000  710.37142  37.7%     -  933s
     0     0  710.54146    0 2308 1140.00000  710.54146  37.7%     -  978s
     0     0  710.56122    0 2299 1140.00000  710.56122  37.7%     -  985s
     0     0  710.56608    0 2306 1140.00000  710.56608  37.7%     -  989s
     0     0  711.56259    0 2286 1140.00000  711.56259  37.6%     - 1048s
     0     0  711.72224    0 2291 1140.00000  711.72224  37.6%     - 1072s
     0     0  711.74941    0 2290 1140.00000  711.74941  37.6%     - 1082s
     0     0  711.75558    0 2300 1140.00000  711.75558  37.6%     - 1086s
     0     0  711.92889    0 2298 1140.00000  711.92889  37.6%     - 1114s
     0     0  711.98147    0 2293 1140.00000  711.98147  37.5%     - 1132s
     0     0  712.00101    0 2303 1140.00000  712.00101  37.5%     - 1139s
     0     0  712.48456    0 2322 1140.00000  712.48456  37.5%     - 1179s
     0     0  712.56390    0 2341 1140.00000  712.56390  37.5%     - 1200s
     0     0  712.57817    0 2321 1140.00000  712.57817  37.5%     - 1207s
     0     0  713.61637    0 2332 1140.00000  713.61637  37.4%     - 1270s
     0     0  713.76477    0 2329 1140.00000  713.76477  37.4%     - 1318s
     0     0  713.79871    0 2329 1140.00000  713.79871  37.4%     - 1328s
     0     0  713.81113    0 2353 1140.00000  713.81113  37.4%     - 1335s
     0     0  715.13643    0 2340 1140.00000  715.13643  37.3%     - 1396s
     0     0  715.32147    0 2334 1140.00000  715.32147  37.3%     - 1419s
     0     0  715.35164    0 2315 1140.00000  715.35164  37.2%     - 1427s
     0     0  715.36124    0 2334 1140.00000  715.36124  37.2%     - 1433s
     0     0  715.67871    0 2285 1140.00000  715.67871  37.2%     - 1465s
     0     0  715.73974    0 2292 1140.00000  715.73974  37.2%     - 1479s
     0     0  715.74886    0 2300 1140.00000  715.74886  37.2%     - 1484s
     0     0  715.96686    0 2293 1140.00000  715.96686  37.2%     - 1509s
     0     0  716.03374    0 2301 1140.00000  716.03374  37.2%     - 1525s
     0     0  716.04426    0 2308 1140.00000  716.04426  37.2%     - 1532s
     0     0  716.86788    0 2299 1140.00000  716.86788  37.1%     - 1579s
     0     0  717.01990    0 2319 1140.00000  717.01990  37.1%     - 1601s
     0     0  717.05527    0 2313 1140.00000  717.05527  37.1%     - 1610s
     0     0  717.06037    0 2333 1140.00000  717.06037  37.1%     - 1614s
     0     0  717.81824    0 2300 1140.00000  717.81824  37.0%     - 1658s
     0     0  717.93512    0 2327 1140.00000  717.93512  37.0%     - 1678s
     0     0  717.97091    0 2339 1140.00000  717.97091  37.0%     - 1688s
     0     0  717.97849    0 2344 1140.00000  717.97849  37.0%     - 1692s
     0     0  718.32321    0 2314 1140.00000  718.32321  37.0%     - 1731s
     0     0  718.37556    0 2322 1140.00000  718.37556  37.0%     - 1782s
     0     0  718.40431    0 2353 1140.00000  718.40431  37.0%     - 1792s
     0     0  718.40761    0 2364 1140.00000  718.40761  37.0%     - 1796s
     0     0  718.65205    0 2315 1140.00000  718.65205  37.0%     - 1826s
     0     0  718.69532    0 2343 1140.00000  718.69532  37.0%     - 1843s
     0     0  718.70255    0 2335 1140.00000  718.70255  37.0%     - 1849s
     0     0  719.19313    0 2314 1140.00000  719.19313  36.9%     - 1887s
     0     0  719.26849    0 2305 1140.00000  719.26849  36.9%     - 1912s
     0     0  719.27666    0 2321 1140.00000  719.27666  36.9%     - 1919s
     0     0  720.06392    0 2279 1140.00000  720.06392  36.8%     - 1963s
     0     0  720.20476    0 2289 1140.00000  720.20476  36.8%     - 1986s
     0     0  720.23526    0 2304 1140.00000  720.23526  36.8%     - 1997s
     0     0  720.25209    0 2290 1140.00000  720.25209  36.8%     - 2005s
     0     0  720.59729    0 2321 1140.00000  720.59729  36.8%     - 2039s
     0     0  720.67749    0 2341 1140.00000  720.67749  36.8%     - 2058s
     0     0  720.69849    0 2340 1140.00000  720.69849  36.8%     - 2066s
     0     0  721.12002    0 2323 1140.00000  721.12002  36.7%     - 2096s
     0     0  721.17752    0 2364 1140.00000  721.17752  36.7%     - 2112s
     0     0  721.20320    0 2344 1140.00000  721.20320  36.7%     - 2123s
     0     0  721.21086    0 2352 1140.00000  721.21086  36.7%     - 2129s
     0     0  721.62322    0 2338 1140.00000  721.62322  36.7%     - 2167s
     0     0  721.68194    0 2353 1140.00000  721.68194  36.7%     - 2183s
     0     0  721.69808    0 2381 1140.00000  721.69808  36.7%     - 2191s
     0     0  722.27323    0 2330 1140.00000  722.27323  36.6%     - 2231s
     0     0  722.30872    0 2338 1140.00000  722.30872  36.6%     - 2246s
     0     0  722.34495    0 2348 1140.00000  722.34495  36.6%     - 2256s
     0     0  722.35097    0 2348 1140.00000  722.35097  36.6%     - 2262s
     0     0  722.68540    0 2327 1140.00000  722.68540  36.6%     - 2299s
     0     0  722.77501    0 2337 1140.00000  722.77501  36.6%     - 2366s
     0     0  722.78648    0 2355 1140.00000  722.78648  36.6%     - 2372s
     0     0  723.09067    0 2361 1140.00000  723.09067  36.6%     - 2407s
     0     0  723.15435    0 2356 1140.00000  723.15435  36.6%     - 2426s
     0     0  723.17550    0 2356 1140.00000  723.17550  36.6%     - 2435s
     0     0  723.59757    0 2357 1140.00000  723.59757  36.5%     - 2476s
     0     0  723.66156    0 2367 1140.00000  723.66156  36.5%     - 2491s
     0     0  723.69078    0 2357 1140.00000  723.69078  36.5%     - 2500s
     0     0  723.69624    0 2365 1140.00000  723.69624  36.5%     - 2506s
     0     0  724.18529    0 2354 1140.00000  724.18529  36.5%     - 2544s
     0     0  724.24324    0 2371 1140.00000  724.24324  36.5%     - 2559s
     0     0  724.27346    0 2385 1140.00000  724.27346  36.5%     - 2568s
     0     0  724.28546    0 2392 1140.00000  724.28546  36.5%     - 2575s
     0     0  724.38728    0 2368 1140.00000  724.38728  36.5%     - 2598s
     0     0  724.38728    0 2366 1140.00000  724.38728  36.5%     - 2617s
     0     2  724.38836    0 2366 1140.00000  724.38836  36.5%     - 3089s
     1     3  731.16880    1 2105 1140.00000  724.38836  36.5% 19918 3282s
     2     4  725.81754    1 2340 1140.00000  725.81754  36.3% 13647 3353s

Cutting planes:
  Gomory: 1
  Cover: 5
  MIR: 108
  StrongCG: 31
  Zero half: 48
  Mod-K: 8
  RLT: 1097

Explored 3 nodes (267258 simplex iterations) in 3600.03 seconds
Thread count was 1 (of 40 available processors)

Solution count 1: 1140 

Time limit reached
Best objective 1.140000000000e+03, best bound 7.260000000000e+02, gap 36.3158%

User-callback calls 52696, time in user-callback 0.17 sec
